VASP POSCAR
1.0
  15.89003     0.00000     0.00000
   0.00000    15.81213     0.00000
   0.00000     0.00000    16.26446
  C  H
  20  20
Direct
   0.41811     0.52674     0.59405
   0.43149     0.60116     0.54206
   0.52164     0.62042     0.54206
   0.56399     0.55790     0.59405
   0.50000     0.50000     0.62618
   0.62143     0.50904     0.54206
   0.59295     0.42096     0.54206
   0.51790     0.41537     0.59405
   0.44708     0.38980     0.54206
   0.38541     0.45863     0.54206
   0.61459     0.54137     0.45794
   0.55292     0.61020     0.45794
   0.48210     0.58463     0.40595
   0.40705     0.57904     0.45794
   0.37857     0.49096     0.45794
   0.58189     0.47326     0.40595
   0.56851     0.39884     0.45794
   0.50000     0.50000     0.37382
   0.47836     0.37958     0.45794
   0.43601     0.44210     0.40595
   0.37502     0.54081     0.64354
   0.39544     0.65440     0.56419
   0.53303     0.68379     0.56419
   0.59766     0.58837     0.64354
   0.50000     0.50000     0.69258
   0.68534     0.51380     0.56419
   0.64187     0.37936     0.56419
   0.52732     0.37083     0.64354
   0.41923     0.33180     0.56419
   0.32510     0.43686     0.56419
   0.67490     0.56314     0.43581
   0.58077     0.66820     0.43581
   0.47268     0.62917     0.35646
   0.35813     0.62064     0.43581
   0.31466     0.48620     0.43581
   0.62498     0.45919     0.35646
   0.60456     0.34560     0.43581
   0.50000     0.50000     0.30742
   0.46697     0.31621     0.43581
   0.40234     0.41163     0.35646
